
Gurobi 10.0.1 (win64) logging started Wed Apr 12 07:35:27 2023

Set parameter LogFile to value "results/log/Fattahi_setup_03.log"
Gurobi Optimizer version 10.0.1 build v10.0.1rc0 (win64)

CPU model: AMD Ryzen 7 3700X 8-Core Processor, instruction set [SSE2|AVX|AVX2]
Thread count: 8 physical cores, 16 logical processors, using up to 16 threads

Optimize a model with 66 rows, 37 columns and 261 nonzeros
Model fingerprint: 0x2055d5dc
Variable types: 11 continuous, 26 integer (26 binary)
Coefficient statistics:
  Matrix range     [1e+00, 1e+09]
  Objective range  [1e+00, 1e+00]
  Bounds range     [1e+00, 1e+00]
  RHS range        [1e+00, 3e+09]
Warning: Model contains large matrix coefficients
Warning: Model contains large rhs
         Consider reformulating model or setting NumericFocus parameter
         to avoid numerical issues.
Presolve removed 20 rows and 7 columns
Presolve time: 0.00s
Presolved: 46 rows, 30 columns, 193 nonzeros
Variable types: 10 continuous, 20 integer (20 binary)
Found heuristic solution: objective 962.0000000

Root relaxation: objective 6.590000e+02, 6 iterations, 0.00 seconds (0.00 work units)

    Nodes    |    Current Node    |     Objective Bounds      |     Work
 Expl Unexpl |  Obj  Depth IntInf | Incumbent    BestBd   Gap | It/Node Time

     0     0  659.00000    0    4  962.00000  659.00000  31.5%     -    0s
H    0     0                     961.9999944  659.00000  31.5%     -    0s
H    0     0                     961.9999929  659.00000  31.5%     -    0s
     0     0  660.20896    0    6  961.99999  660.20896  31.4%     -    0s
H    0     0                     955.0000000  660.20896  30.9%     -    0s
H    0     0                     912.9999979  660.20896  27.7%     -    0s
H    0     0                     886.9999963  660.20896  25.6%     -    0s
     0     0  679.00000    0    4  887.00000  679.00000  23.4%     -    0s
H    0     0                     868.9999989  679.00000  21.9%     -    0s
     0     0  685.00000    0    4  869.00000  685.00000  21.2%     -    0s
     0     0  751.00000    0    3  869.00000  751.00000  13.6%     -    0s
H    0     0                     868.9999987  751.00000  13.6%     -    0s
     0     0  772.00000    0    3  869.00000  772.00000  11.2%     -    0s
     0     0  772.00000    0    3  869.00000  772.00000  11.2%     -    0s
H    0     0                     868.9999980  772.00000  11.2%     -    0s
     0     0  869.00000    0    3  869.00000  869.00000  0.00%     -    0s

Cutting planes:
  Implied bound: 1
  MIR: 2
  Flow cover: 3

Explored 1 nodes (30 simplex iterations) in 0.01 seconds (0.00 work units)
Thread count was 16 (of 16 available processors)

Solution count 9: 869 869 869 ... 962

Optimal solution found (tolerance 1.00e-04)
Best objective 8.690000000000e+02, best bound 8.690000000000e+02, gap 0.0000%
Warning: variable name "y[job:0, stage:0, machine:1]" has a space
Warning: constraint name "precedence between 1,0 to 0,0 if x_[j,l,h,z,i]=1" has a space
Warning: to let Gurobi read it back, use rlp format
Warning: variable name "y[job:0, stage:0, machine:1]" has a space
Warning: constraint name "precedence between 1,0 to 0,0 if x_[j,l,h,z,i]=1" has a space
Warning: default variable names used to write mps file
Warning: default constraint names used to write mps file
Warning: variable name "y[job:0, stage:0, machine:1]" has a space
Warning: default variable names used to write solution file
